param set_len = 18;
param target := 2407043400;
set values := 104288149, 249570874, 111684777, 46370169, 233860477, 383796405, 479402940, 320019834, 456798238, 266828756, 297717960, 311184559, 24944486, 518563990, 157257769, 405661981, 334792013, 36253524, ;
